p tw 68 77
1 2
2 13
3 4
4 5
5 6
5 18
6 7
7 8
8 9
9 10
9 16
10 11
11 12
12 14
13 24
14 15
14 16
15 64
16 17
17 64
18 19
19 20
20 21
20 25
21 22
22 23
22 25
23 25
24 35
25 26
26 64
27 28
28 29
29 30
30 31
31 32
32 33
33 34
34 36
35 46
35 27
36 37
37 38
38 39
39 40
40 41
40 45
41 42
42 43
43 44
44 45
45 47
46 57
47 48
48 49
48 50
49 64
50 51
51 52
52 53
53 54
54 55
55 56
56 58
56 61
57 66
58 59
59 60
60 61
61 62
62 63
62 32
63 64
64 65
66 67
67 68
68 3
